10J3M/DAT/10J3MNLA-8.dat
10 3
31.7236 1006.3868
26.9569 726.6745
28.2149 796.0806
24.1382 582.6527
25.2957 639.8724
32.1309 1032.3947
22.9701 527.6255
32.5798 1061.4434
23.2488 540.5067
26.5615 705.5133
2539.7169