10J3M/SOL/10J3MNLA-8.sol
solution status: optimal solution found
objective value:                     91.2734666666667
x#1#2                               0.719434985653255 	(obj:0)
x#1#3                               0.280565014346745 	(obj:0)
x#2#3                                               1 	(obj:0)
x#3#2                                               1 	(obj:0)
x#4#1                                               1 	(obj:0)
x#5#1                                               1 	(obj:0)
x#6#1                                  0.141805462081 	(obj:0)
x#6#3                                  0.858194537919 	(obj:0)
x#7#2                               0.595295577981683 	(obj:0)
x#7#3                               0.404704422018317 	(obj:0)
x#8#1                                               1 	(obj:0)
x#9#1                               0.202308486678379 	(obj:0)
x#9#3                               0.797691513321621 	(obj:0)
x#10#2                                              1 	(obj:0)
z                                    91.2734666666667 	(obj:1)
